p cnf 364 1352
1 -2 0
-1 2 0
1 3 4 0
1 -3 -4 0
-1 3 -4 0
-1 -3 4 0
3 5 6 0
3 -5 -6 0
-3 5 -6 0
-3 -5 6 0
5 7 -8 0
5 -7 8 0
-5 7 8 0
-5 -7 -8 0
7 9 10 0
7 -9 -10 0
-7 9 -10 0
-7 -9 10 0
9 11 12 0
9 -11 -12 0
-9 11 -12 0
-9 -11 12 0
11 13 14 0
11 -13 -14 0
-11 13 -14 0
-11 -13 14 0
13 15 16 0
13 -15 -16 0
-13 15 -16 0
-13 -15 16 0
15 17 -18 0
15 -17 18 0
-15 17 18 0
-15 -17 -18 0
17 19 -20 0
17 -19 20 0
-17 19 20 0
-17 -19 -20 0
19 21 -22 0
19 -21 22 0
-19 21 22 0
-19 -21 -22 0
21 23 24 0
21 -23 -24 0
-21 23 -24 0
-21 -23 24 0
23 25 26 0
23 -25 -26 0
-23 25 -26 0
-23 -25 26 0
25 -27 0
-25 27 0
2 28 -29 0
2 -28 29 0
-2 28 29 0
-2 -28 -29 0
4 28 30 31 0
4 28 -30 -31 0
4 -28 30 -31 0
4 -28 -30 31 0
-4 28 30 -31 0
-4 28 -30 31 0
-4 -28 30 31 0
-4 -28 -30 -31 0
6 30 32 -33 0
6 30 -32 33 0
6 -30 32 33 0
6 -30 -32 -33 0
-6 30 32 33 0
-6 30 -32 -33 0
-6 -30 32 -33 0
-6 -30 -32 33 0
8 32 34 -35 0
8 32 -34 35 0
8 -32 34 35 0
8 -32 -34 -35 0
-8 32 34 35 0
-8 32 -34 -35 0
-8 -32 34 -35 0
-8 -32 -34 35 0
10 34 36 37 0
10 34 -36 -37 0
10 -34 36 -37 0
10 -34 -36 37 0
-10 34 36 -37 0
-10 34 -36 37 0
-10 -34 36 37 0
-10 -34 -36 -37 0
12 36 38 -39 0
12 36 -38 39 0
12 -36 38 39 0
12 -36 -38 -39 0
-12 36 38 39 0
-12 36 -38 -39 0
-12 -36 38 -39 0
-12 -36 -38 39 0
14 38 40 -41 0
14 38 -40 41 0
14 -38 40 41 0
14 -38 -40 -41 0
-14 38 40 41 0
-14 38 -40 -41 0
-14 -38 40 -41 0
-14 -38 -40 41 0
16 40 42 -43 0
16 40 -42 43 0
16 -40 42 43 0
16 -40 -42 -43 0
-16 40 42 43 0
-16 40 -42 -43 0
-16 -40 42 -43 0
-16 -40 -42 43 0
18 42 44 -45 0
18 42 -44 45 0
18 -42 44 45 0
18 -42 -44 -45 0
-18 42 44 45 0
-18 42 -44 -45 0
-18 -42 44 -45 0
-18 -42 -44 45 0
20 44 46 47 0
20 44 -46 -47 0
20 -44 46 -47 0
20 -44 -46 47 0
-20 44 46 -47 0
-20 44 -46 47 0
-20 -44 46 47 0
-20 -44 -46 -47 0
22 46 48 49 0
22 46 -48 -49 0
22 -46 48 -49 0
22 -46 -48 49 0
-22 46 48 -49 0
-22 46 -48 49 0
-22 -46 48 49 0
-22 -46 -48 -49 0
24 48 50 -51 0
24 48 -50 51 0
24 -48 50 51 0
24 -48 -50 -51 0
-24 48 50 51 0
-24 48 -50 -51 0
-24 -48 50 -51 0
-24 -48 -50 51 0
26 50 52 -53 0
26 50 -52 53 0
26 -50 52 53 0
26 -50 -52 -53 0
-26 50 52 53 0
-26 50 -52 -53 0
-26 -50 52 -53 0
-26 -50 -52 53 0
27 52 54 0
27 -52 -54 0
-27 52 -54 0
-27 -52 54 0
29 55 -56 0
29 -55 56 0
-29 55 56 0
-29 -55 -56 0
31 55 57 58 0
31 55 -57 -58 0
31 -55 57 -58 0
31 -55 -57 58 0
-31 55 57 -58 0
-31 55 -57 58 0
-31 -55 57 58 0
-31 -55 -57 -58 0
33 57 59 60 0
33 57 -59 -60 0
33 -57 59 -60 0
33 -57 -59 60 0
-33 57 59 -60 0
-33 57 -59 60 0
-33 -57 59 60 0
-33 -57 -59 -60 0
35 59 61 62 0
35 59 -61 -62 0
35 -59 61 -62 0
35 -59 -61 62 0
-35 59 61 -62 0
-35 59 -61 62 0
-35 -59 61 62 0
-35 -59 -61 -62 0
37 61 63 -64 0
37 61 -63 64 0
37 -61 63 64 0
37 -61 -63 -64 0
-37 61 63 64 0
-37 61 -63 -64 0
-37 -61 63 -64 0
-37 -61 -63 64 0
39 63 65 66 0
39 63 -65 -66 0
39 -63 65 -66 0
39 -63 -65 66 0
-39 63 65 -66 0
-39 63 -65 66 0
-39 -63 65 66 0
-39 -63 -65 -66 0
41 65 67 68 0
41 65 -67 -68 0
41 -65 67 -68 0
41 -65 -67 68 0
-41 65 67 -68 0
-41 65 -67 68 0
-41 -65 67 68 0
-41 -65 -67 -68 0
43 67 69 70 0
43 67 -69 -70 0
43 -67 69 -70 0
43 -67 -69 70 0
-43 67 69 -70 0
-43 67 -69 70 0
-43 -67 69 70 0
-43 -67 -69 -70 0
45 69 71 -72 0
45 69 -71 72 0
45 -69 71 72 0
45 -69 -71 -72 0
-45 69 71 72 0
-45 69 -71 -72 0
-45 -69 71 -72 0
-45 -69 -71 72 0
47 71 73 -74 0
47 71 -73 74 0
47 -71 73 74 0
47 -71 -73 -74 0
-47 71 73 74 0
-47 71 -73 -74 0
-47 -71 73 -74 0
-47 -71 -73 74 0
49 73 75 -76 0
49 73 -75 76 0
49 -73 75 76 0
49 -73 -75 -76 0
-49 73 75 76 0
-49 73 -75 -76 0
-49 -73 75 -76 0
-49 -73 -75 76 0
51 75 77 78 0
51 75 -77 -78 0
51 -75 77 -78 0
51 -75 -77 78 0
-51 75 77 -78 0
-51 75 -77 78 0
-51 -75 77 78 0
-51 -75 -77 -78 0
53 77 79 -80 0
53 77 -79 80 0
53 -77 79 80 0
53 -77 -79 -80 0
-53 77 79 80 0
-53 77 -79 -80 0
-53 -77 79 -80 0
-53 -77 -79 80 0
54 79 -81 0
54 -79 81 0
-54 79 81 0
-54 -79 -81 0
56 82 -83 0
56 -82 83 0
-56 82 83 0
-56 -82 -83 0
58 82 84 85 0
58 82 -84 -85 0
58 -82 84 -85 0
58 -82 -84 85 0
-58 82 84 -85 0
-58 82 -84 85 0
-58 -82 84 85 0
-58 -82 -84 -85 0
60 84 86 -87 0
60 84 -86 87 0
60 -84 86 87 0
60 -84 -86 -87 0
-60 84 86 87 0
-60 84 -86 -87 0
-60 -84 86 -87 0
-60 -84 -86 87 0
62 86 88 -89 0
62 86 -88 89 0
62 -86 88 89 0
62 -86 -88 -89 0
-62 86 88 89 0
-62 86 -88 -89 0
-62 -86 88 -89 0
-62 -86 -88 89 0
64 88 90 91 0
64 88 -90 -91 0
64 -88 90 -91 0
64 -88 -90 91 0
-64 88 90 -91 0
-64 88 -90 91 0
-64 -88 90 91 0
-64 -88 -90 -91 0
66 90 92 93 0
66 90 -92 -93 0
66 -90 92 -93 0
66 -90 -92 93 0
-66 90 92 -93 0
-66 90 -92 93 0
-66 -90 92 93 0
-66 -90 -92 -93 0
68 92 94 -95 0
68 92 -94 95 0
68 -92 94 95 0
68 -92 -94 -95 0
-68 92 94 95 0
-68 92 -94 -95 0
-68 -92 94 -95 0
-68 -92 -94 95 0
70 94 96 -97 0
70 94 -96 97 0
70 -94 96 97 0
70 -94 -96 -97 0
-70 94 96 97 0
-70 94 -96 -97 0
-70 -94 96 -97 0
-70 -94 -96 97 0
72 96 98 -99 0
72 96 -98 99 0
72 -96 98 99 0
72 -96 -98 -99 0
-72 96 98 99 0
-72 96 -98 -99 0
-72 -96 98 -99 0
-72 -96 -98 99 0
74 98 100 101 0
74 98 -100 -101 0
74 -98 100 -101 0
74 -98 -100 101 0
-74 98 100 -101 0
-74 98 -100 101 0
-74 -98 100 101 0
-74 -98 -100 -101 0
76 100 102 103 0
76 100 -102 -103 0
76 -100 102 -103 0
76 -100 -102 103 0
-76 100 102 -103 0
-76 100 -102 103 0
-76 -100 102 103 0
-76 -100 -102 -103 0
78 102 104 -105 0
78 102 -104 105 0
78 -102 104 105 0
78 -102 -104 -105 0
-78 102 104 105 0
-78 102 -104 -105 0
-78 -102 104 -105 0
-78 -102 -104 105 0
80 104 106 -107 0
80 104 -106 107 0
80 -104 106 107 0
80 -104 -106 -107 0
-80 104 106 107 0
-80 104 -106 -107 0
-80 -104 106 -107 0
-80 -104 -106 107 0
81 106 108 0
81 -106 -108 0
-81 106 -108 0
-81 -106 108 0
83 109 -110 0
83 -109 110 0
-83 109 110 0
-83 -109 -110 0
85 109 111 112 0
85 109 -111 -112 0
85 -109 111 -112 0
85 -109 -111 112 0
-85 109 111 -112 0
-85 109 -111 112 0
-85 -109 111 112 0
-85 -109 -111 -112 0
87 111 113 114 0
87 111 -113 -114 0
87 -111 113 -114 0
87 -111 -113 114 0
-87 111 113 -114 0
-87 111 -113 114 0
-87 -111 113 114 0
-87 -111 -113 -114 0
89 113 115 116 0
89 113 -115 -116 0
89 -113 115 -116 0
89 -113 -115 116 0
-89 113 115 -116 0
-89 113 -115 116 0
-89 -113 115 116 0
-89 -113 -115 -116 0
91 115 117 118 0
91 115 -117 -118 0
91 -115 117 -118 0
91 -115 -117 118 0
-91 115 117 -118 0
-91 115 -117 118 0
-91 -115 117 118 0
-91 -115 -117 -118 0
93 117 119 -120 0
93 117 -119 120 0
93 -117 119 120 0
93 -117 -119 -120 0
-93 117 119 120 0
-93 117 -119 -120 0
-93 -117 119 -120 0
-93 -117 -119 120 0
95 119 121 122 0
95 119 -121 -122 0
95 -119 121 -122 0
95 -119 -121 122 0
-95 119 121 -122 0
-95 119 -121 122 0
-95 -119 121 122 0
-95 -119 -121 -122 0
97 121 123 -124 0
97 121 -123 124 0
97 -121 123 124 0
97 -121 -123 -124 0
-97 121 123 124 0
-97 121 -123 -124 0
-97 -121 123 -124 0
-97 -121 -123 124 0
99 123 125 126 0
99 123 -125 -126 0
99 -123 125 -126 0
99 -123 -125 126 0
-99 123 125 -126 0
-99 123 -125 126 0
-99 -123 125 126 0
-99 -123 -125 -126 0
101 125 127 128 0
101 125 -127 -128 0
101 -125 127 -128 0
101 -125 -127 128 0
-101 125 127 -128 0
-101 125 -127 128 0
-101 -125 127 128 0
-101 -125 -127 -128 0
103 127 129 -130 0
103 127 -129 130 0
103 -127 129 130 0
103 -127 -129 -130 0
-103 127 129 130 0
-103 127 -129 -130 0
-103 -127 129 -130 0
-103 -127 -129 130 0
105 129 131 132 0
105 129 -131 -132 0
105 -129 131 -132 0
105 -129 -131 132 0
-105 129 131 -132 0
-105 129 -131 132 0
-105 -129 131 132 0
-105 -129 -131 -132 0
107 131 133 134 0
107 131 -133 -134 0
107 -131 133 -134 0
107 -131 -133 134 0
-107 131 133 -134 0
-107 131 -133 134 0
-107 -131 133 134 0
-107 -131 -133 -134 0
108 133 -135 0
108 -133 135 0
-108 133 135 0
-108 -133 -135 0
110 136 137 0
110 -136 -137 0
-110 136 -137 0
-110 -136 137 0
112 136 138 -139 0
112 136 -138 139 0
112 -136 138 139 0
112 -136 -138 -139 0
-112 136 138 139 0
-112 136 -138 -139 0
-112 -136 138 -139 0
-112 -136 -138 139 0
114 138 140 -141 0
114 138 -140 141 0
114 -138 140 141 0
114 -138 -140 -141 0
-114 138 140 141 0
-114 138 -140 -141 0
-114 -138 140 -141 0
-114 -138 -140 141 0
116 140 142 143 0
116 140 -142 -143 0
116 -140 142 -143 0
116 -140 -142 143 0
-116 140 142 -143 0
-116 140 -142 143 0
-116 -140 142 143 0
-116 -140 -142 -143 0
118 142 144 -145 0
118 142 -144 145 0
118 -142 144 145 0
118 -142 -144 -145 0
-118 142 144 145 0
-118 142 -144 -145 0
-118 -142 144 -145 0
-118 -142 -144 145 0
120 144 146 147 0
120 144 -146 -147 0
120 -144 146 -147 0
120 -144 -146 147 0
-120 144 146 -147 0
-120 144 -146 147 0
-120 -144 146 147 0
-120 -144 -146 -147 0
122 146 148 -149 0
122 146 -148 149 0
122 -146 148 149 0
122 -146 -148 -149 0
-122 146 148 149 0
-122 146 -148 -149 0
-122 -146 148 -149 0
-122 -146 -148 149 0
124 148 150 -151 0
124 148 -150 151 0
124 -148 150 151 0
124 -148 -150 -151 0
-124 148 150 151 0
-124 148 -150 -151 0
-124 -148 150 -151 0
-124 -148 -150 151 0
126 150 152 -153 0
126 150 -152 153 0
126 -150 152 153 0
126 -150 -152 -153 0
-126 150 152 153 0
-126 150 -152 -153 0
-126 -150 152 -153 0
-126 -150 -152 153 0
128 152 154 155 0
128 152 -154 -155 0
128 -152 154 -155 0
128 -152 -154 155 0
-128 152 154 -155 0
-128 152 -154 155 0
-128 -152 154 155 0
-128 -152 -154 -155 0
130 154 156 -157 0
130 154 -156 157 0
130 -154 156 157 0
130 -154 -156 -157 0
-130 154 156 157 0
-130 154 -156 -157 0
-130 -154 156 -157 0
-130 -154 -156 157 0
132 156 158 159 0
132 156 -158 -159 0
132 -156 158 -159 0
132 -156 -158 159 0
-132 156 158 -159 0
-132 156 -158 159 0
-132 -156 158 159 0
-132 -156 -158 -159 0
134 158 160 161 0
134 158 -160 -161 0
134 -158 160 -161 0
134 -158 -160 161 0
-134 158 160 -161 0
-134 158 -160 161 0
-134 -158 160 161 0
-134 -158 -160 -161 0
135 160 -162 0
135 -160 162 0
-135 160 162 0
-135 -160 -162 0
137 163 -164 0
137 -163 164 0
-137 163 164 0
-137 -163 -164 0
139 163 165 166 0
139 163 -165 -166 0
139 -163 165 -166 0
139 -163 -165 166 0
-139 163 165 -166 0
-139 163 -165 166 0
-139 -163 165 166 0
-139 -163 -165 -166 0
141 165 167 -168 0
141 165 -167 168 0
141 -165 167 168 0
141 -165 -167 -168 0
-141 165 167 168 0
-141 165 -167 -168 0
-141 -165 167 -168 0
-141 -165 -167 168 0
143 167 169 170 0
143 167 -169 -170 0
143 -167 169 -170 0
143 -167 -169 170 0
-143 167 169 -170 0
-143 167 -169 170 0
-143 -167 169 170 0
-143 -167 -169 -170 0
145 169 171 -172 0
145 169 -171 172 0
145 -169 171 172 0
145 -169 -171 -172 0
-145 169 171 172 0
-145 169 -171 -172 0
-145 -169 171 -172 0
-145 -169 -171 172 0
147 171 173 174 0
147 171 -173 -174 0
147 -171 173 -174 0
147 -171 -173 174 0
-147 171 173 -174 0
-147 171 -173 174 0
-147 -171 173 174 0
-147 -171 -173 -174 0
149 173 175 176 0
149 173 -175 -176 0
149 -173 175 -176 0
149 -173 -175 176 0
-149 173 175 -176 0
-149 173 -175 176 0
-149 -173 175 176 0
-149 -173 -175 -176 0
151 175 177 -178 0
151 175 -177 178 0
151 -175 177 178 0
151 -175 -177 -178 0
-151 175 177 178 0
-151 175 -177 -178 0
-151 -175 177 -178 0
-151 -175 -177 178 0
153 177 179 180 0
153 177 -179 -180 0
153 -177 179 -180 0
153 -177 -179 180 0
-153 177 179 -180 0
-153 177 -179 180 0
-153 -177 179 180 0
-153 -177 -179 -180 0
155 179 181 182 0
155 179 -181 -182 0
155 -179 181 -182 0
155 -179 -181 182 0
-155 179 181 -182 0
-155 179 -181 182 0
-155 -179 181 182 0
-155 -179 -181 -182 0
157 181 183 -184 0
157 181 -183 184 0
157 -181 183 184 0
157 -181 -183 -184 0
-157 181 183 184 0
-157 181 -183 -184 0
-157 -181 183 -184 0
-157 -181 -183 184 0
159 183 185 186 0
159 183 -185 -186 0
159 -183 185 -186 0
159 -183 -185 186 0
-159 183 185 -186 0
-159 183 -185 186 0
-159 -183 185 186 0
-159 -183 -185 -186 0
161 185 187 -188 0
161 185 -187 188 0
161 -185 187 188 0
161 -185 -187 -188 0
-161 185 187 188 0
-161 185 -187 -188 0
-161 -185 187 -188 0
-161 -185 -187 188 0
162 187 -189 0
162 -187 189 0
-162 187 189 0
-162 -187 -189 0
164 190 -191 0
164 -190 191 0
-164 190 191 0
-164 -190 -191 0
166 190 192 -193 0
166 190 -192 193 0
166 -190 192 193 0
166 -190 -192 -193 0
-166 190 192 193 0
-166 190 -192 -193 0
-166 -190 192 -193 0
-166 -190 -192 193 0
168 192 194 -195 0
168 192 -194 195 0
168 -192 194 195 0
168 -192 -194 -195 0
-168 192 194 195 0
-168 192 -194 -195 0
-168 -192 194 -195 0
-168 -192 -194 195 0
170 194 196 197 0
170 194 -196 -197 0
170 -194 196 -197 0
170 -194 -196 197 0
-170 194 196 -197 0
-170 194 -196 197 0
-170 -194 196 197 0
-170 -194 -196 -197 0
172 196 198 199 0
172 196 -198 -199 0
172 -196 198 -199 0
172 -196 -198 199 0
-172 196 198 -199 0
-172 196 -198 199 0
-172 -196 198 199 0
-172 -196 -198 -199 0
174 198 200 -201 0
174 198 -200 201 0
174 -198 200 201 0
174 -198 -200 -201 0
-174 198 200 201 0
-174 198 -200 -201 0
-174 -198 200 -201 0
-174 -198 -200 201 0
176 200 202 -203 0
176 200 -202 203 0
176 -200 202 203 0
176 -200 -202 -203 0
-176 200 202 203 0
-176 200 -202 -203 0
-176 -200 202 -203 0
-176 -200 -202 203 0
178 202 204 205 0
178 202 -204 -205 0
178 -202 204 -205 0
178 -202 -204 205 0
-178 202 204 -205 0
-178 202 -204 205 0
-178 -202 204 205 0
-178 -202 -204 -205 0
180 204 206 207 0
180 204 -206 -207 0
180 -204 206 -207 0
180 -204 -206 207 0
-180 204 206 -207 0
-180 204 -206 207 0
-180 -204 206 207 0
-180 -204 -206 -207 0
182 206 208 209 0
182 206 -208 -209 0
182 -206 208 -209 0
182 -206 -208 209 0
-182 206 208 -209 0
-182 206 -208 209 0
-182 -206 208 209 0
-182 -206 -208 -209 0
184 208 210 -211 0
184 208 -210 211 0
184 -208 210 211 0
184 -208 -210 -211 0
-184 208 210 211 0
-184 208 -210 -211 0
-184 -208 210 -211 0
-184 -208 -210 211 0
186 210 212 -213 0
186 210 -212 213 0
186 -210 212 213 0
186 -210 -212 -213 0
-186 210 212 213 0
-186 210 -212 -213 0
-186 -210 212 -213 0
-186 -210 -212 213 0
188 212 214 -215 0
188 212 -214 215 0
188 -212 214 215 0
188 -212 -214 -215 0
-188 212 214 215 0
-188 212 -214 -215 0
-188 -212 214 -215 0
-188 -212 -214 215 0
189 214 -216 0
189 -214 216 0
-189 214 216 0
-189 -214 -216 0
191 217 -218 0
191 -217 218 0
-191 217 218 0
-191 -217 -218 0
193 217 219 -220 0
193 217 -219 220 0
193 -217 219 220 0
193 -217 -219 -220 0
-193 217 219 220 0
-193 217 -219 -220 0
-193 -217 219 -220 0
-193 -217 -219 220 0
195 219 221 222 0
195 219 -221 -222 0
195 -219 221 -222 0
195 -219 -221 222 0
-195 219 221 -222 0
-195 219 -221 222 0
-195 -219 221 222 0
-195 -219 -221 -222 0
197 221 223 -224 0
197 221 -223 224 0
197 -221 223 224 0
197 -221 -223 -224 0
-197 221 223 224 0
-197 221 -223 -224 0
-197 -221 223 -224 0
-197 -221 -223 224 0
199 223 225 -226 0
199 223 -225 226 0
199 -223 225 226 0
199 -223 -225 -226 0
-199 223 225 226 0
-199 223 -225 -226 0
-199 -223 225 -226 0
-199 -223 -225 226 0
201 225 227 228 0
201 225 -227 -228 0
201 -225 227 -228 0
201 -225 -227 228 0
-201 225 227 -228 0
-201 225 -227 228 0
-201 -225 227 228 0
-201 -225 -227 -228 0
203 227 229 230 0
203 227 -229 -230 0
203 -227 229 -230 0
203 -227 -229 230 0
-203 227 229 -230 0
-203 227 -229 230 0
-203 -227 229 230 0
-203 -227 -229 -230 0
205 229 231 232 0
205 229 -231 -232 0
205 -229 231 -232 0
205 -229 -231 232 0
-205 229 231 -232 0
-205 229 -231 232 0
-205 -229 231 232 0
-205 -229 -231 -232 0
207 231 233 -234 0
207 231 -233 234 0
207 -231 233 234 0
207 -231 -233 -234 0
-207 231 233 234 0
-207 231 -233 -234 0
-207 -231 233 -234 0
-207 -231 -233 234 0
209 233 235 -236 0
209 233 -235 236 0
209 -233 235 236 0
209 -233 -235 -236 0
-209 233 235 236 0
-209 233 -235 -236 0
-209 -233 235 -236 0
-209 -233 -235 236 0
211 235 237 -238 0
211 235 -237 238 0
211 -235 237 238 0
211 -235 -237 -238 0
-211 235 237 238 0
-211 235 -237 -238 0
-211 -235 237 -238 0
-211 -235 -237 238 0
213 237 239 -240 0
213 237 -239 240 0
213 -237 239 240 0
213 -237 -239 -240 0
-213 237 239 240 0
-213 237 -239 -240 0
-213 -237 239 -240 0
-213 -237 -239 240 0
215 239 241 -242 0
215 239 -241 242 0
215 -239 241 242 0
215 -239 -241 -242 0
-215 239 241 242 0
-215 239 -241 -242 0
-215 -239 241 -242 0
-215 -239 -241 242 0
216 241 243 0
216 -241 -243 0
-216 241 -243 0
-216 -241 243 0
218 244 245 0
218 -244 -245 0
-218 244 -245 0
-218 -244 245 0
220 244 246 247 0
220 244 -246 -247 0
220 -244 246 -247 0
220 -244 -246 247 0
-220 244 246 -247 0
-220 244 -246 247 0
-220 -244 246 247 0
-220 -244 -246 -247 0
222 246 248 -249 0
222 246 -248 249 0
222 -246 248 249 0
222 -246 -248 -249 0
-222 246 248 249 0
-222 246 -248 -249 0
-222 -246 248 -249 0
-222 -246 -248 249 0
224 248 250 251 0
224 248 -250 -251 0
224 -248 250 -251 0
224 -248 -250 251 0
-224 248 250 -251 0
-224 248 -250 251 0
-224 -248 250 251 0
-224 -248 -250 -251 0
226 250 252 253 0
226 250 -252 -253 0
226 -250 252 -253 0
226 -250 -252 253 0
-226 250 252 -253 0
-226 250 -252 253 0
-226 -250 252 253 0
-226 -250 -252 -253 0
228 252 254 255 0
228 252 -254 -255 0
228 -252 254 -255 0
228 -252 -254 255 0
-228 252 254 -255 0
-228 252 -254 255 0
-228 -252 254 255 0
-228 -252 -254 -255 0
230 254 256 -257 0
230 254 -256 257 0
230 -254 256 257 0
230 -254 -256 -257 0
-230 254 256 257 0
-230 254 -256 -257 0
-230 -254 256 -257 0
-230 -254 -256 257 0
232 256 258 -259 0
232 256 -258 259 0
232 -256 258 259 0
232 -256 -258 -259 0
-232 256 258 259 0
-232 256 -258 -259 0
-232 -256 258 -259 0
-232 -256 -258 259 0
234 258 260 261 0
234 258 -260 -261 0
234 -258 260 -261 0
234 -258 -260 261 0
-234 258 260 -261 0
-234 258 -260 261 0
-234 -258 260 261 0
-234 -258 -260 -261 0
236 260 262 263 0
236 260 -262 -263 0
236 -260 262 -263 0
236 -260 -262 263 0
-236 260 262 -263 0
-236 260 -262 263 0
-236 -260 262 263 0
-236 -260 -262 -263 0
238 262 264 265 0
238 262 -264 -265 0
238 -262 264 -265 0
238 -262 -264 265 0
-238 262 264 -265 0
-238 262 -264 265 0
-238 -262 264 265 0
-238 -262 -264 -265 0
240 264 266 267 0
240 264 -266 -267 0
240 -264 266 -267 0
240 -264 -266 267 0
-240 264 266 -267 0
-240 264 -266 267 0
-240 -264 266 267 0
-240 -264 -266 -267 0
242 266 268 269 0
242 266 -268 -269 0
242 -266 268 -269 0
242 -266 -268 269 0
-242 266 268 -269 0
-242 266 -268 269 0
-242 -266 268 269 0
-242 -266 -268 -269 0
243 268 270 0
243 -268 -270 0
-243 268 -270 0
-243 -268 270 0
245 271 -272 0
245 -271 272 0
-245 271 272 0
-245 -271 -272 0
247 271 273 -274 0
247 271 -273 274 0
247 -271 273 274 0
247 -271 -273 -274 0
-247 271 273 274 0
-247 271 -273 -274 0
-247 -271 273 -274 0
-247 -271 -273 274 0
249 273 275 -276 0
249 273 -275 276 0
249 -273 275 276 0
249 -273 -275 -276 0
-249 273 275 276 0
-249 273 -275 -276 0
-249 -273 275 -276 0
-249 -273 -275 276 0
251 275 277 -278 0
251 275 -277 278 0
251 -275 277 278 0
251 -275 -277 -278 0
-251 275 277 278 0
-251 275 -277 -278 0
-251 -275 277 -278 0
-251 -275 -277 278 0
253 277 279 -280 0
253 277 -279 280 0
253 -277 279 280 0
253 -277 -279 -280 0
-253 277 279 280 0
-253 277 -279 -280 0
-253 -277 279 -280 0
-253 -277 -279 280 0
255 279 281 -282 0
255 279 -281 282 0
255 -279 281 282 0
255 -279 -281 -282 0
-255 279 281 282 0
-255 279 -281 -282 0
-255 -279 281 -282 0
-255 -279 -281 282 0
257 281 283 -284 0
257 281 -283 284 0
257 -281 283 284 0
257 -281 -283 -284 0
-257 281 283 284 0
-257 281 -283 -284 0
-257 -281 283 -284 0
-257 -281 -283 284 0
259 283 285 286 0
259 283 -285 -286 0
259 -283 285 -286 0
259 -283 -285 286 0
-259 283 285 -286 0
-259 283 -285 286 0
-259 -283 285 286 0
-259 -283 -285 -286 0
261 285 287 288 0
261 285 -287 -288 0
261 -285 287 -288 0
261 -285 -287 288 0
-261 285 287 -288 0
-261 285 -287 288 0
-261 -285 287 288 0
-261 -285 -287 -288 0
263 287 289 290 0
263 287 -289 -290 0
263 -287 289 -290 0
263 -287 -289 290 0
-263 287 289 -290 0
-263 287 -289 290 0
-263 -287 289 290 0
-263 -287 -289 -290 0
265 289 291 292 0
265 289 -291 -292 0
265 -289 291 -292 0
265 -289 -291 292 0
-265 289 291 -292 0
-265 289 -291 292 0
-265 -289 291 292 0
-265 -289 -291 -292 0
267 291 293 294 0
267 291 -293 -294 0
267 -291 293 -294 0
267 -291 -293 294 0
-267 291 293 -294 0
-267 291 -293 294 0
-267 -291 293 294 0
-267 -291 -293 -294 0
269 293 295 -296 0
269 293 -295 296 0
269 -293 295 296 0
269 -293 -295 -296 0
-269 293 295 296 0
-269 293 -295 -296 0
-269 -293 295 -296 0
-269 -293 -295 296 0
270 295 297 0
270 -295 -297 0
-270 295 -297 0
-270 -295 297 0
272 298 299 0
272 -298 -299 0
-272 298 -299 0
-272 -298 299 0
274 298 300 301 0
274 298 -300 -301 0
274 -298 300 -301 0
274 -298 -300 301 0
-274 298 300 -301 0
-274 298 -300 301 0
-274 -298 300 301 0
-274 -298 -300 -301 0
276 300 302 -303 0
276 300 -302 303 0
276 -300 302 303 0
276 -300 -302 -303 0
-276 300 302 303 0
-276 300 -302 -303 0
-276 -300 302 -303 0
-276 -300 -302 303 0
278 302 304 -305 0
278 302 -304 305 0
278 -302 304 305 0
278 -302 -304 -305 0
-278 302 304 305 0
-278 302 -304 -305 0
-278 -302 304 -305 0
-278 -302 -304 305 0
280 304 306 307 0
280 304 -306 -307 0
280 -304 306 -307 0
280 -304 -306 307 0
-280 304 306 -307 0
-280 304 -306 307 0
-280 -304 306 307 0
-280 -304 -306 -307 0
282 306 308 -309 0
282 306 -308 309 0
282 -306 308 309 0
282 -306 -308 -309 0
-282 306 308 309 0
-282 306 -308 -309 0
-282 -306 308 -309 0
-282 -306 -308 309 0
284 308 310 311 0
284 308 -310 -311 0
284 -308 310 -311 0
284 -308 -310 311 0
-284 308 310 -311 0
-284 308 -310 311 0
-284 -308 310 311 0
-284 -308 -310 -311 0
286 310 312 -313 0
286 310 -312 313 0
286 -310 312 313 0
286 -310 -312 -313 0
-286 310 312 313 0
-286 310 -312 -313 0
-286 -310 312 -313 0
-286 -310 -312 313 0
288 312 314 315 0
288 312 -314 -315 0
288 -312 314 -315 0
288 -312 -314 315 0
-288 312 314 -315 0
-288 312 -314 315 0
-288 -312 314 315 0
-288 -312 -314 -315 0
290 314 316 317 0
290 314 -316 -317 0
290 -314 316 -317 0
290 -314 -316 317 0
-290 314 316 -317 0
-290 314 -316 317 0
-290 -314 316 317 0
-290 -314 -316 -317 0
292 316 318 -319 0
292 316 -318 319 0
292 -316 318 319 0
292 -316 -318 -319 0
-292 316 318 319 0
-292 316 -318 -319 0
-292 -316 318 -319 0
-292 -316 -318 319 0
294 318 320 321 0
294 318 -320 -321 0
294 -318 320 -321 0
294 -318 -320 321 0
-294 318 320 -321 0
-294 318 -320 321 0
-294 -318 320 321 0
-294 -318 -320 -321 0
296 320 322 -323 0
296 320 -322 323 0
296 -320 322 323 0
296 -320 -322 -323 0
-296 320 322 323 0
-296 320 -322 -323 0
-296 -320 322 -323 0
-296 -320 -322 323 0
297 322 -324 0
297 -322 324 0
-297 322 324 0
-297 -322 -324 0
299 325 -326 0
299 -325 326 0
-299 325 326 0
-299 -325 -326 0
301 325 327 328 0
301 325 -327 -328 0
301 -325 327 -328 0
301 -325 -327 328 0
-301 325 327 -328 0
-301 325 -327 328 0
-301 -325 327 328 0
-301 -325 -327 -328 0
303 327 329 330 0
303 327 -329 -330 0
303 -327 329 -330 0
303 -327 -329 330 0
-303 327 329 -330 0
-303 327 -329 330 0
-303 -327 329 330 0
-303 -327 -329 -330 0
305 329 331 332 0
305 329 -331 -332 0
305 -329 331 -332 0
305 -329 -331 332 0
-305 329 331 -332 0
-305 329 -331 332 0
-305 -329 331 332 0
-305 -329 -331 -332 0
307 331 333 -334 0
307 331 -333 334 0
307 -331 333 334 0
307 -331 -333 -334 0
-307 331 333 334 0
-307 331 -333 -334 0
-307 -331 333 -334 0
-307 -331 -333 334 0
309 333 335 -336 0
309 333 -335 336 0
309 -333 335 336 0
309 -333 -335 -336 0
-309 333 335 336 0
-309 333 -335 -336 0
-309 -333 335 -336 0
-309 -333 -335 336 0
311 335 337 -338 0
311 335 -337 338 0
311 -335 337 338 0
311 -335 -337 -338 0
-311 335 337 338 0
-311 335 -337 -338 0
-311 -335 337 -338 0
-311 -335 -337 338 0
313 337 339 340 0
313 337 -339 -340 0
313 -337 339 -340 0
313 -337 -339 340 0
-313 337 339 -340 0
-313 337 -339 340 0
-313 -337 339 340 0
-313 -337 -339 -340 0
315 339 341 342 0
315 339 -341 -342 0
315 -339 341 -342 0
315 -339 -341 342 0
-315 339 341 -342 0
-315 339 -341 342 0
-315 -339 341 342 0
-315 -339 -341 -342 0
317 341 343 -344 0
317 341 -343 344 0
317 -341 343 344 0
317 -341 -343 -344 0
-317 341 343 344 0
-317 341 -343 -344 0
-317 -341 343 -344 0
-317 -341 -343 344 0
319 343 345 346 0
319 343 -345 -346 0
319 -343 345 -346 0
319 -343 -345 346 0
-319 343 345 -346 0
-319 343 -345 346 0
-319 -343 345 346 0
-319 -343 -345 -346 0
321 345 347 -348 0
321 345 -347 348 0
321 -345 347 348 0
321 -345 -347 -348 0
-321 345 347 348 0
-321 345 -347 -348 0
-321 -345 347 -348 0
-321 -345 -347 348 0
323 347 349 350 0
323 347 -349 -350 0
323 -347 349 -350 0
323 -347 -349 350 0
-323 347 349 -350 0
-323 347 -349 350 0
-323 -347 349 350 0
-323 -347 -349 -350 0
324 349 351 0
324 -349 -351 0
-324 349 -351 0
-324 -349 351 0
326 352 0
-326 -352 0
328 352 -353 0
328 -352 353 0
-328 352 353 0
-328 -352 -353 0
330 353 354 0
330 -353 -354 0
-330 353 -354 0
-330 -353 354 0
332 354 -355 0
332 -354 355 0
-332 354 355 0
-332 -354 -355 0
334 355 356 0
334 -355 -356 0
-334 355 -356 0
-334 -355 356 0
336 356 -357 0
336 -356 357 0
-336 356 357 0
-336 -356 -357 0
338 357 -358 0
338 -357 358 0
-338 357 358 0
-338 -357 -358 0
340 358 -359 0
340 -358 359 0
-340 358 359 0
-340 -358 -359 0
342 359 360 0
342 -359 -360 0
-342 359 -360 0
-342 -359 360 0
344 360 -361 0
344 -360 361 0
-344 360 361 0
-344 -360 -361 0
346 361 362 0
346 -361 -362 0
-346 361 -362 0
-346 -361 362 0
348 362 363 0
348 -362 -363 0
-348 362 -363 0
-348 -362 363 0
350 363 -364 0
350 -363 364 0
-350 363 364 0
-350 -363 -364 0
351 364 0
-351 -364 0
